clasp version 2.1.1
Reading from stdin
Solving...
UNSATISFIABLE

Models      : 0     
Time        : 9.723s (Solving: 9.63s 1st Model: 0.00s Unsat: 9.63s)
CPU Time    : 28.850s
Choices     : 979240
Conflicts   : 933176
Restarts    : 320    (Average: 2916.17 Last: 80497)

Atoms       : 10247 
Rules       : 35197  (1: 34816 2: 360 3: 21)
Bodies      : 19621 
Equivalences: 5372   (Atom=Atom: 435 Body=Body: 0 Other: 4937)
Tight       : Yes

Variables   : 26820  (Eliminated:    0 Frozen: 7920)
Constraints : 40050  (Binary: 42.5% Ternary: 56.6% Other:  0.9%)
Lemmas      : 936974 (Binary:  0.0% Ternary:  0.1% Other: 99.9%)
  Conflict  : 933175 (Average Length: 17.2) 
  Loop      : 0      (Average Length: 0.0) 
  Other     : 3799   (Average Length: 8.1)
  Deleted   : 832431

============ PARALLEL STATISTICS ============

Threads     : 3
Winner      : 0
Distributed : 3956   (Ratio: 0.00 Average LBD: 3.71) 
Integrated  : 7902   (Ratio: 2.00 Unit: 56 Average Jumps: 4.30)
Splits      : 0
Problems    : 3      (Average Length: 0.00) 

